NAME : portcgen-20-15
COMMENT : portcgen N=20, seed=15
TYPE : TSP
DIMENSION : 20
EDGE_WEIGHT_TYPE : EUC_2D
NODE_COORD_SECTION
1 115923 106068
2 -380077 -259283
3 176873 68322
4 194613 331349
5 51218 -349557
6 368657 -342331
7 271516 -8874
8 -250746 173147
9 377054 104563
10 -51632 -279821
11 99714 153615
12 -192267 183355
13 363575 -273443
14 -188363 -260459
15 330272 19084
16 -44558 -318937
17 -103168 136621
18 350605 234774
19 -435552 -7978
20 279228 -139503
